'hugeuniformBPP81'
      43
     150
     143         1
     136         1
     132         2
     129         1
     120         2
     114         1
     113         1
     112         2
     111         1
     107         1
     105         1
      98         1
      93         1
      92         1
      90         1
      87         1
      85         1
      83         1
      71         1
      70         1
      65         2
      63         1
      61         1
      55         1
      53         1
      51         1
      50         1
      46         1
      45         1
      43         1
      34         1
      33         2
      29         1
      26         1
      24         1
      23         1
      17         1
      14         1
      13         1
      12         1
       7         1
       3         2
       1         2
'hugeuniformBPP82'
      47
     150
     148         1
     147         2
     146         1
     139         2
     138         1
     133         1
     130         1
     119         1
     117         1
     113         1
     111         1
     109         1
     108         1
     104         1
     101         1
      99         1
      94         1
      90         1
      89         1
      87         1
      86         1
      84         1
      83         1
      78         1
      77         1
      76         1
      75         1
      69         1
      63         1
      62         1
      57         1
      53         1
      51         1
      50         1
      49         1
      35         1
      34         1
      31         1
      30         1
      24         1
      20         1
      16         1
      14         2
       9         1
       6         1
       5         1
       4         1
'hugeuniformBPP83'
      41
     150
     150         1
     149         1
     147         1
     146         1
     145         2
     143         1
     142         1
     140         1
     137         1
     136         1
     135         3
     130         1
     129         1
     124         1
     122         1
     120         1
     116         1
     115         1
     107         2
     102         1
      98         1
      97         1
      93         1
      91         1
      89         1
      85         1
      81         1
      77         1
      73         1
      72         1
      69         1
      66         1
      50         1
      42         1
      37         1
      30         1
      13         1
      12         2
      11         4
       7         1
       4         2
'hugeuniformBPP84'
      45
     150
     148         1
     147         1
     144         1
     142         1
     141         1
     140         1
     138         1
     136         2
     134         1
     128         2
     127         1
     120         1
     119         1
     118         1
     114         1
     113         1
     112         1
     108         1
     104         2
     103         1
     102         1
     100         1
      99         1
      98         1
      97         1
      96         3
      94         1
      84         1
      72         1
      70         1
      58         1
      52         1
      44         1
      42         1
      38         1
      34         1
      33         1
      32         1
      31         1
      28         1
      27         1
      16         1
      15         1
      11         1
       4         1
'hugeuniformBPP85'
      41
     150
     149         1
     140         1
     135         1
     132         1
     129         1
     125         1
     122         1
     119         1
     116         1
     109         1
     106         1
     104         2
      94         1
      91         2
      90         1
      87         1
      78         1
      73         1
      72         2
      70         1
      69         2
      64         1
      61         1
      56         1
      52         1
      48         1
      47         1
      46         1
      40         2
      37         1
      36         3
      31         3
      30         1
      29         1
      21         1
      20         1
      19         1
      17         1
      11         1
       8         1
       2         1
'hugeuniformBPP86'
      46
     150
     144         1
     142         1
     141         1
     139         1
     135         1
     133         1
     131         1
     128         1
     125         1
     120         1
     117         1
     115         1
     114         1
     108         1
     106         1
     105         1
      94         2
      93         1
      92         1
      90         1
      89         1
      86         1
      81         1
      77         1
      75         1
      61         1
      60         1
      55         2
      53         1
      47         1
      45         1
      40         1
      39         1
      36         1
      35         2
      29         1
      28         1
      26         1
      24         1
      23         2
      20         1
      16         1
      14         1
      12         1
       8         1
       1         1
'hugeuniformBPP87'
      45
     150
     148         1
     146         2
     142         1
     134         1
     133         2
     131         2
     126         1
     125         1
     123         1
     116         1
     113         1
     110         1
     109         1
     107         1
     106         1
      99         1
      98         2
      94         1
      92         1
      85         1
      83         1
      78         1
      71         1
      70         1
      67         1
      61         1
      55         1
      49         1
      46         1
      43         1
      42         1
      36         1
      33         1
      26         1
      22         1
      19         1
      17         2
      15         1
      14         1
       7         1
       6         1
       4         1
       3         1
       2         1
       1         1
'hugeuniformBPP88'
      42
     150
     149         1
     141         1
     136         2
     133         1
     131         1
     129         2
     128         1
     127         1
     124         1
     119         1
     107         1
     103         1
     101         1
      99         1
      87         2
      80         1
      79         1
      78         2
      77         2
      74         1
      72         1
      65         1
      63         1
      60         1
      58         1
      56         1
      49         1
      44         1
      41         1
      39         2
      36         1
      34         1
      28         1
      25         2
      16         1
      15         1
      14         1
      12         1
      11         1
      10         1
       9         2
       4         1
'hugeuniformBPP89'
      41
     150
     150         1
     149         1
     145         2
     143         1
     137         1
     135         1
     129         1
     126         1
     123         2
     121         1
     120         2
     112         1
     109         1
     105         1
      99         2
      95         1
      93         1
      91         2
      90         1
      89         1
      79         1
      75         1
      74         2
      71         1
      69         2
      59         1
      52         1
      51         1
      50         1
      47         1
      37         1
      35         1
      33         1
      29         1
      27         1
      26         1
      15         1
       7         1
       5         2
       4         2
       1         1
'hugeuniformBPP90'
      42
     150
     149         1
     147         1
     144         1
     141         1
     137         1
     135         2
     132         1
     128         1
     127         1
     120         2
     119         1
     118         1
     115         1
     103         1
     102         1
      96         1
      92         1
      91         1
      89         1
      77         3
      76         1
      68         1
      64         1
      58         1
      55         1
      52         1
      49         2
      47         1
      43         1
      37         2
      36         1
      34         1
      30         1
      29         1
      28         1
      23         2
      21         1
      18         2
      14         1
      12         1
      11         1
       8         1
'hugeuniformBPP91'
    120
    150
    42  1
    69  1
    67  1
    57  1
    93  1
    90  1
    38  1
    36  1
    45  1
    42  1
    33  1
    79  1
    27  1
    57  1
    44  1
    84  1
    86  1
    92  1
    46  1
    38  1
    85  1
    33  1
    82  1
    73  1
    49  1
    70  1
    59  1
    23  1
    57  1
    72  1
    74  1
    69  1
    33  1
    42  1
    28  1
    46  1
    30  1
    64  1
    29  1
    74  1
    41  1
    49  1
    55  1
    98  1
    80  1
    32  1
    25  1
    38  1
    82  1
    30  1
    35  1
    39  1
    57  1
    84  1
    62  1
    50  1
    55  1
    27  1
    30  1
    36  1
    20  1
    78  1
    47  1
    26  1
    45  1
    41  1
    58  1
    98  1
    91  1
    96  1
    73  1
    84  1
    37  1
    93  1
    91  1
    43  1
    73  1
    85  1
    81  1
    79  1
    71  1
    80  1
    76  1
    83  1
    41  1
    78  1
    70  1
    23  1
    42  1
    87  1
    43  1
    84  1
    60  1
    55  1
    49  1
    78  1
    73  1
    62  1
    36  1
    44  1
    94  1
    69  1
    32  1
    96  1
    70  1
    84  1
    58  1
    78  1
    25  1
    80  1
    58  1
    66  1
    83  1
    24  1
    98  1
    60  1
    42  1
    43  1
    43  1
    39  1
'hugeuniformBPP92'
    120
    150
    97  1
    57  1
    81  1
    62  1
    75  1
    81  1
    23  1
    43  1
    50  1
    38  1
    60  1
    58  1
    70  1
    88  1
    36  1
    90  1
    37  1
    45  1
    45  1
    39  1
    44  1
    53  1
    70  1
    24  1
    82  1
    81  1
    47  1
    97  1
    35  1
    65  1
    74  1
    68  1
    49  1
    55  1
    52  1
    94  1
    95  1
    29  1
    99  1
    20  1
    22  1
    25  1
    49  1
    46  1
    98  1
    59  1
    98  1
    60  1
    23  1
    72  1
    33  1
    98  1
    80  1
    95  1
    78  1
    57  1
    67  1
    53  1
    47  1
    53  1
    36  1
    38  1
    92  1
    30  1
    80  1
    32  1
    97  1
    39  1
    80  1
    72  1
    55  1
    41  1
    60  1
    67  1
    53  1
    65  1
    95  1
    20  1
    66  1
    78  1
    98  1
    47  1
    100 1
    85  1
    53  1
    53  1
    67  1
    27  1
    22  1
    61  1
    43  1
    52  1
    76  1
    64  1
    61  1
    29  1
    30  1
    46  1
    79  1
    66  1
    27  1
    79  1
    98  1
    90  1
    22  1
    75  1
    57  1
    67  1
    36  1
    70  1
    99  1
    48  1
    43  1
    45  1
    71  1
    100 1
    88  1
    48  1
    27  1
    39  1
'hugeuniformBPP93'
    120
    150
    29  1
    26  1
    83  1
    82  1
    92  1
    95  1
    87  1
    63  1
    57  1
    100 1
    63  1
    65  1
    81  1
    46  1
    42  1
    95  1
    90  1
    80  1
    53  1
    27  1
    84  1
    40  1
    22  1
    97  1
    20  1
    73  1
    63  1
    95  1
    46  1
    42  1
    47  1
    40  1
    26  1
    88  1
    49  1
    24  1
    92  1
    87  1
    68  1
    95  1
    34  1
    82  1
    84  1
    43  1
    54  1
    73  1
    66  1
    32  1
    62  1
    48  1
    99  1
    90  1
    86  1
    28  1
    25  1
    25  1
    89  1
    67  1
    96  1
    35  1
    33  1
    70  1
    40  1
    59  1
    32  1
    94  1
    34  1
    86  1
    35  1
    45  1
    25  1
    76  1
    80  1
    42  1
    91  1
    44  1
    91  1
    97  1
    60  1
    29  1
    45  1
    37  1
    61  1
    54  1
    78  1
    56  1
    74  1
    74  1
    45  1
    21  1
    96  1
    37  1
    75  1
    100 1
    58  1
    84  1
    85  1
    56  1
    54  1
    71  1
    52  1
    79  1
    43  1
    35  1
    27  1
    70  1
    31  1
    47  1
    35  1
    26  1
    30  1
    97  1
    90  1
    80  1
    58  1
    60  1
    73  1
    46  1
    71  1
    39  1
'hugeuniformBPP94'
    120
    150
    42  1
    98  1
    27  1
    21  1
    71  1
    71  1
    78  1
    76  1
    57  1
    24  1
    91  1
    84  1
    35  1
    25  1
    77  1
    96  1
    97  1
    89  1
    30  1
    86  1
    81  1
    39  1
    75  1
    66  1
    85  1
    36  1
    60  1
    56  1
    50  1
    75  1
    75  1
    37  1
    87  1
    95  1
    21  1
    99  1
    42  1
    57  1
    31  1
    37  1
    42  1
    40  1
    69  1
    91  1
    45  1
    97  1
    84  1
    90  1
    52  1
    43  1
    68  1
    53  1
    37  1
    65  1
    79  1
    73  1
    92  1
    87  1
    20  1
    20  1
    73  1
    42  1
    52  1
    20  1
    24  1
    76  1
    71  1
    72  1
    21  1
    21  1
    82  1
    92  1
    78  1
    87  1
    50  1
    41  1
    31  1
    73  1
    89  1
    59  1
    88  1
    40  1
    71  1
    69  1
    45  1
    57  1
    49  1
    68  1
    84  1
    32  1
    69  1
    77  1
    92  1
    98  1
    57  1
    39  1
    32  1
    23  1
    99  1
    91  1
    48  1
    21  1
    70  1
    43  1
    73  1
    69  1
    65  1
    57  1
    67  1
    28  1
    84  1
    42  1
    61  1
    92  1
    82  1
    34  1
    74  1
    55  1
    60  1
    69  1
'hugeuniformBPP95'
    120
    150
    26  1
    25  1
    67  1
    77  1
    67  1
    79  1
    47  1
    84  1
    50  1
    21  1
    87  1
    83  1
    44  1
    88  1
    78  1
    53  1
    78  1
    37  1
    47  1
    52  1
    32  1
    88  1
    85  1
    82  1
    55  1
    41  1
    60  1
    66  1
    78  1
    72  1
    34  1
    64  1
    20  1
    60  1
    100 1
    62  1
    80  1
    34  1
    68  1
    38  1
    32  1
    32  1
    37  1
    82  1
    98  1
    90  1
    58  1
    97  1
    56  1
    34  1
    70  1
    39  1
    56  1
    69  1
    36  1
    20  1
    99  1
    84  1
    53  1
    27  1
    88  1
    53  1
    42  1
    45  1
    42  1
    31  1
    54  1
    60  1
    55  1
    27  1
    36  1
    31  1
    39  1
    91  1
    45  1
    97  1
    26  1
    80  1
    41  1
    56  1
    70  1
    97  1
    48  1
    87  1
    23  1
    32  1
    75  1
    100 1
    97  1
    51  1
    78  1
    78  1
    21  1
    72  1
    72  1
    79  1
    46  1
    30  1
    48  1
    27  1
    95  1
    48  1
    67  1
    58  1
    46  1
    92  1
    21  1
    82  1
    91  1
    40  1
    56  1
    24  1
    94  1
    44  1
    91  1
    92  1
    81  1
    24  1
    84  1
    44  1
'hugeuniformBPP96'
    120
    150
    83  1
    37  1
    98  1
    85  1
    88  1
    95  1
    29  1
    35  1
    100 1
    55  1
    48  1
    27  1
    20  1
    66  1
    62  1
    52  1
    88  1
    59  1
    97  1
    91  1
    81  1
    81  1
    86  1
    48  1
    43  1
    60  1
    72  1
    88  1
    90  1
    48  1
    38  1
    60  1
    53  1
    55  1
    90  1
    48  1
    55  1
    57  1
    59  1
    25  1
    51  1
    22  1
    43  1
    31  1
    52  1
    89  1
    96  1
    58  1
    63  1
    27  1
    46  1
    43  1
    30  1
    44  1
    71  1
    66  1
    64  1
    28  1
    83  1
    88  1
    42  1
    92  1
    95  1
    36  1
    24  1
    62  1
    44  1
    82  1
    59  1
    31  1
    96  1
    44  1
    61  1
    78  1
    72  1
    62  1
    76  1
    65  1
    22  1
    41  1
    27  1
    85  1
    80  1
    72  1
    100 1
    29  1
    27  1
    43  1
    83  1
    32  1
    33  1
    53  1
    95  1
    99  1
    20  1
    23  1
    72  1
    50  1
    50  1
    27  1
    89  1
    53  1
    75  1
    81  1
    34  1
    27  1
    69  1
    48  1
    84  1
    37  1
    69  1
    54  1
    51  1
    49  1
    49  1
    54  1
    100 1
    55  1
    45  1
    83  1
'hugeuniformBPP97'
    120
    150
    61  1
    96  1
    91  1
    37  1
    53  1
    76  1
    50  1
    66  1
    70  1
    87  1
    92  1
    35  1
    53  1
    95  1
    47  1
    56  1
    55  1
    86  1
    32  1
    99  1
    83  1
    88  1
    41  1
    63  1
    77  1
    60  1
    66  1
    53  1
    79  1
    81  1
    96  1
    34  1
    99  1
    47  1
    74  1
    87  1
    44  1
    77  1
    52  1
    99  1
    69  1
    64  1
    94  1
    38  1
    69  1
    61  1
    98  1
    40  1
    84  1
    89  1
    49  1
    64  1
    53  1
    41  1
    34  1
    85  1
    35  1
    55  1
    61  1
    68  1
    100 1
    75  1
    98  1
    36  1
    44  1
    57  1
    24  1
    60  1
    45  1
    48  1
    60  1
    94  1
    71  1
    70  1
    64  1
    62  1
    93  1
    20  1
    69  1
    37  1
    63  1
    61  1
    26  1
    54  1
    89  1
    46  1
    54  1
    50  1
    32  1
    71  1
    62  1
    40  1
    26  1
    59  1
    62  1
    27  1
    60  1
    50  1
    74  1
    34  1
    40  1
    70  1
    56  1
    23  1
    66  1
    57  1
    43  1
    45  1
    65  1
    25  1
    82  1
    82  1
    37  1
    66  1
    47  1
    44  1
    94  1
    23  1
    24  1
    51  1
'hugeuniformBPP98'
    120
    150
    100 1
    22  1
    25  1
    51  1
    95  1
    58  1
    97  1
    30  1
    79  1
    23  1
    53  1
    80  1
    20  1
    65  1
    64  1
    21  1
    26  1
    100 1
    81  1
    98  1
    70  1
    85  1
    92  1
    97  1
    86  1
    71  1
    91  1
    29  1
    63  1
    34  1
    67  1
    23  1
    33  1
    89  1
    94  1
    47  1
    100 1
    37  1
    40  1
    58  1
    73  1
    39  1
    49  1
    79  1
    54  1
    57  1
    98  1
    69  1
    67  1
    49  1
    38  1
    34  1
    96  1
    27  1
    92  1
    82  1
    69  1
    45  1
    69  1
    20  1
    75  1
    97  1
    51  1
    70  1
    29  1
    91  1
    98  1
    77  1
    48  1
    45  1
    43  1
    61  1
    36  1
    82  1
    89  1
    94  1
    26  1
    35  1
    58  1
    58  1
    57  1
    46  1
    44  1
    91  1
    49  1
    52  1
    65  1
    42  1
    33  1
    60  1
    37  1
    57  1
    91  1
    52  1
    95  1
    84  1
    72  1
    75  1
    89  1
    81  1
    67  1
    74  1
    87  1
    60  1
    32  1
    76  1
    85  1
    59  1
    62  1
    39  1
    64  1
    52  1
    88  1
    45  1
    29  1
    88  1
    85  1
    54  1
    40  1
    57  1